proyfinal/src/viki/013/andrea/andrea-localstore/experimentInOfficeAgust.take6/worker_8/276a05be-d99d-4fa3-8a16-feddf01214df.als.cnf.out
Reading from standard input... Use '--help' for help.
============================[ Problem Statistics ]=============================
|                                                                             |
|  Number of variables:         87638                                         |
|  Number of clauses:          161767                                         |
|  Parse time:                   0.04 s                                       |
|                                                                             |
============================[ Search Statistics ]==============================
| Conflicts |          ORIGINAL         |          LEARNT          | Progress |
|           |    Vars  Clauses Literals |    Limit  Clauses Lit/Cl |          |
===============================================================================
|       100 |   61872   103527   258207 |    37959      100      6 | 29.400 % |
|       250 |   61700   103527   258207 |    41755      248     36 | 29.597 % |
|       475 |   61700   102841   256540 |    45931      402     49 | 29.597 % |
|       812 |   61335   101407   253107 |    50524      685     88 | 30.013 % |
|      1318 |   61295   101329   252920 |    55577     1189     76 | 30.059 % |
|      2077 |   61295   101251   252730 |    61134     1948     87 | 30.059 % |
|      3216 |   61251   101075   252298 |    67248     3083     91 | 30.109 % |
|      4924 |   61251   101075   252298 |    73973     4791    101 | 30.109 % |
|      7486 |   61251   101075   252298 |    81370     7353    107 | 30.109 % |
|     11330 |   61208   100871   251836 |    89507    11181    110 | 30.158 % |
===============================================================================
restarts              : 62
conflicts             : 15842          (7218 /sec)
decisions             : 48286          (0.00 % random) (21999 /sec)
propagations          : 20053697       (9136534 /sec)
conflict literals     : 1443790        (45.64 % deleted)
Memory used           : 36.37 MB
CPU time              : 2.19489 s

UNSATISFIABLE
